%NProcShared=36 
%mem=16GB 
%chk=BTZ-Anion1-wb97xd-999.chk 
#p wb97xd/6-31+G(d,p) opt(MaxCycles=100) freq scf(xqc, MaxConventional=200) scrf(smd,solvent=acetonitrile) 

CCOCN(C(C)=O)c1c(OC)c(C#N)c(N(C)C)c2nsnc12 -1 2

-1 2
C          7.43453        3.47925        1.33707
C          6.73242        2.12768        1.30109
O          5.33991        2.33686        1.43583
C          4.66586        1.09353        1.42166
N          5.09720        0.24180        2.52470
C          4.18200       -0.64933        3.04293
C          4.49681       -1.50323        4.24054
O          3.03965       -0.71650        2.58255
C          6.51730        0.19220        2.91880
C          7.16210        1.32000        3.55500
O          6.50140        2.46940        3.88180
C          7.05202        3.72856        3.92298
C          8.54000        1.28110        3.89630
C          9.06590        2.43260        4.59100
N          9.48060        3.38110        5.10690
C          9.38230        0.15490        3.63910
N         10.82120        0.21750        3.93670
C         11.67730       -0.92775        3.65826
C         11.47086        1.51718        3.75265
C          8.74360       -0.98160        3.08230
N          9.38090       -2.15270        2.78660
S          8.17470       -3.06100        2.15040
N          6.84470       -2.10740        2.16410
C          7.31790       -0.95810        2.72620
H          8.52056        3.36642        1.14782
H          7.29659        3.96725        2.31944
H          7.00902        4.14864        0.56637
H          7.12803        1.49909        2.12725
H          6.97889        1.64438        0.33113
H          4.86383        0.54579        0.48673
H          3.55981        1.23268        1.50404
H          5.40990       -1.15290        4.76589
H          4.58669       -2.56514        3.98046
H          3.66565       -1.38583        4.97517
H          6.29612        4.48526        3.64621
H          7.88049        3.83366        3.19553
H          7.36529        3.96491        4.94514
H         11.20653       -1.87476        3.97278
H         12.63055       -0.83968        4.21894
H         11.93724       -0.96221        2.58565
H         10.82462        2.23259        3.19926
H         12.39488        1.41063        3.14148
H         11.76686        1.96832        4.71376
